instances/knapsack/discrete/knapsack_20_18.kp
40344
20
110

27 2.7 89
79 7.9 6
53 5.3 7
98 9.8 27
71 7.1 33
9 0.9 36
40 4.0 61
15 1.5 71
8 0.8 38
49 4.9 58
79 7.9 66
74 7.4 46
31 3.1 90
95 9.5 25
72 7.2 94
100 10.0 39
72 7.2 85
99 9.9 33
56 5.6 2
33 3.3 49

37148
98

[2.99 2.19 4.88 4.22 3.77 1.22 1.1 1.16 2.73 0.01 0.05 4.13 1.03 3.96 1.01 1.19 1.34 1.17 3.71 0.61]

[1 37 59 68 49 23 30 37 98 91 53 64 73 21 22 78 82 1 46 51]
